c description: Random 3-CNF over 19 variables and 81 clauses
c generator: CNFgen (0.9.2)
c copyright: (C) 2012-2022 Massimo Lauria <massimo.lauria@uniroma1.it>
c url: https://massimolauria.net/cnfgen
c command line: cnfgen --output CNF_4.28/19_bit_81_266.cnf randkcnf 3 19 81
c
p cnf 19 81
6 7 17 0
3 7 -17 0
7 -12 18 0
-11 14 17 0
-6 9 15 0
6 -8 -10 0
5 7 12 0
-8 -12 19 0
7 11 -14 0
-6 12 -16 0
2 8 -12 0
4 8 -13 0
12 16 -17 0
-4 -10 -15 0
-3 7 11 0
5 16 -19 0
3 -7 12 0
-7 -13 16 0
-7 13 -16 0
11 12 -15 0
-13 15 -16 0
8 -9 -13 0
1 6 18 0
1 4 12 0
10 -11 14 0
-10 -13 -14 0
-1 6 16 0
-9 10 12 0
6 10 18 0
3 11 -18 0
4 18 -19 0
-4 -16 18 0
-3 6 11 0
2 4 -15 0
-15 -16 -19 0
2 15 18 0
4 6 10 0
5 -7 -19 0
-1 11 17 0
-13 -14 18 0
-8 14 15 0
-3 9 10 0
7 -10 12 0
-4 13 14 0
1 10 -15 0
-1 -3 4 0
2 -10 -17 0
8 -10 -18 0
-3 11 12 0
8 9 -10 0
-1 7 -15 0
6 11 -19 0
2 -5 10 0
-9 -10 16 0
-14 18 -19 0
4 -13 15 0
2 3 19 0
10 17 -18 0
-5 6 -17 0
7 12 -19 0
-9 11 12 0
9 -12 -16 0
-5 10 19 0
5 7 -9 0
4 16 -19 0
-9 -10 -16 0
1 -4 -14 0
-4 -9 11 0
6 -11 -18 0
4 -9 -12 0
-7 10 -15 0
-3 8 11 0
12 15 16 0
4 12 -16 0
-11 13 -19 0
-2 6 19 0
2 5 13 0
2 10 -15 0
-3 12 -16 0
-5 -6 19 0
-1 14 18 0
